NAME : ST69C.793.tour
COMMENT : Cost = 0_793
COMMENT : Found by LKH [Keld Helsgaun] Sun Sep 17 16:52:40 2017
TYPE : TOUR
DIMENSION : 69
TOUR_SECTION
1
36
29
13
23
16
57
50
5
10
52
59
33
53
61
39
25
40
9
43
41
6
42
18
4
2
65
62
22
58
68
31
69
35
56
15
24
19
7
32
3
28
8
26
54
49
14
20
30
44
67
27
46
45
60
17
21
34
12
66
48
11
63
64
55
51
37
47
38
-1
EOF
